% seed = 2780127

mint = 41;
% maxt = 124;

nActs = 22;
dur = [0,9,3,8,10,9,6,10,1,9,5,10,5,2,10,10,4,3,3,2,5,0];

nSkills = 4;
sreq = [| 0,0,0,0,
	| 2,1,1,1,
	| 1,1,1,2,
	| 1,2,1,3,
	| 1,3,0,0,
	| 3,2,1,1,
	| 2,1,0,1,
	| 1,1,2,1,
	| 2,1,0,3,
	| 1,2,3,3,
	| 2,1,1,3,
	| 2,2,0,2,
	| 0,2,2,3,
	| 0,3,3,0,
	| 1,2,3,2,
	| 3,2,2,0,
	| 0,3,3,0,
	| 1,1,1,1,
	| 1,2,3,1,
	| 3,0,1,2,
	| 1,3,0,0,
	| 0,0,0,0, |];

nResources = 10;
mastery = [| false,false,true,true,
	| false,true,true,true,
	| true,false,true,true,
	| false,true,false,false,
	| true,true,true,false,
	| false,true,true,true,
	| false,false,true,true,
	| false,true,true,true,
	| true,false,true,true,
	| false,true,true,false, |];

nPrecs = 37;
pred = [1,1,1,2,2,3,3,3,4,4,5,5,6,6,7,7,7,8,8,8,9,9,9,10,11,11,12,13,14,15,15,16,17,18,19,20,21];
succ = [2,3,4,21,5,20,6,8,9,14,19,20,12,7,11,21,16,10,13,15,10,19,20,12,18,13,17,14,18,17,16,18,21,19,22,22,22];

nUnrels = 104;
unpred = [2,2,2,2,2,2,2,2,2,2,2,2,2,2,2,3,3,3,4,4,4,4,4,4,4,4,5,5,5,5,5,5,5,5,5,5,5,5,5,5,6,6,6,6,6,7,7,7,7,7,7,7,8,8,8,9,9,9,9,9,9,10,10,10,10,10,10,10,10,11,11,11,11,11,11,12,12,12,12,12,12,12,13,13,13,13,13,14,14,14,14,14,15,16,16,16,17,17,17,18,18,19,19,20];
unsucc = [3,4,6,7,8,9,10,11,12,13,14,15,16,17,18,4,5,9,5,6,7,8,11,13,15,16,6,7,8,9,10,11,12,13,14,15,16,17,18,21,8,9,10,15,20,8,9,10,12,15,17,20,9,11,20,11,13,14,15,16,18,11,13,14,15,16,18,19,20,12,15,16,17,20,21,13,14,15,16,18,19,20,15,16,17,20,21,15,16,17,20,21,20,17,20,21,18,19,20,20,21,20,21,21];

USEFUL_RES = [{},
	{1,2,3,4,5,6,7,8,9,10},
	{1,2,3,4,5,6,7,8,9,10},
	{1,2,3,4,5,6,7,8,9,10},
	{2,3,4,5,6,8,9,10},
	{1,2,3,4,5,6,7,8,9,10},
	{1,2,3,4,5,6,7,8,9,10},
	{1,2,3,4,5,6,7,8,9,10},
	{1,2,3,4,5,6,7,8,9,10},
	{1,2,3,4,5,6,7,8,9,10},
	{1,2,3,4,5,6,7,8,9,10},
	{1,2,3,4,5,6,7,8,9,10},
	{1,2,3,4,5,6,7,8,9,10},
	{1,2,3,4,5,6,7,8,9,10},
	{1,2,3,4,5,6,7,8,9,10},
	{1,2,3,4,5,6,7,8,9,10},
	{1,2,3,4,5,6,7,8,9,10},
	{1,2,3,4,5,6,7,8,9,10},
	{1,2,3,4,5,6,7,8,9,10},
	{1,2,3,5,6,7,8,9,10},
	{2,3,4,5,6,8,9,10},
	{}];

POTENTIAL_ACT = [{2,3,4,6,7,8,9,10,11,12,13,14,15,16,17,18,19,20},
	{2,3,4,5,6,7,8,9,10,11,12,13,14,15,16,17,18,19,20,21},
	{2,3,4,5,6,7,8,9,10,11,12,13,14,15,16,17,18,19,20,21},
	{2,3,4,5,6,7,8,9,10,11,12,13,14,15,16,17,18,19,21},
	{2,3,4,5,6,7,8,9,10,11,12,13,14,15,16,17,18,19,20,21},
	{2,3,4,5,6,7,8,9,10,11,12,13,14,15,16,17,18,19,20,21},
	{2,3,4,6,7,8,9,10,11,12,13,14,15,16,17,18,19,20},
	{2,3,4,5,6,7,8,9,10,11,12,13,14,15,16,17,18,19,20,21},
	{2,3,4,5,6,7,8,9,10,11,12,13,14,15,16,17,18,19,20,21},
	{2,3,4,5,6,7,8,9,10,11,12,13,14,15,16,17,18,19,20,21}];
